n = 30;
lu = [|-742, -463
      |-604, -280
      |-413, 530
      |-851, 116
      |-822, 575
      |-695, -235
      |-224, 142
      |-784, 826
      |170, 514
      |-141, 60
      |-899, 331
      |210, 646
      |-642, 700
      |-881, 174
      |94, 596
      |683, 826
      |-485, 813
      |-487, -311
      |-734, 13
      |-653, -216
      |-828, 176
      |-671, 590
      |-574, -2
      |-859, -17
      |-822, -799
      |-177, 237
      |-566, -436
      |-266, 58
      |108, 591
      |-557, 194|];
